->GRAPH
113 108
113 215
225 108
225 215
337 108
337 215
449 108
449 215
561 108
561 215
561 322
561 643
561 750
561 964
673 108
673 215
673 322
673 429
673 536
673 643
673 750
673 857
673 964
785 108
785 429
785 536
785 643
785 750
785 964
897 108
1009 108
1009 215
1009 322
1009 429
1009 857
1121 322
1121 429
1121 536
1121 643
1121 750
1121 857
1233 108
1233 322
1233 429
1233 536
1233 643
1233 750
1233 857
1233 964
1345 108
1345 215
1345 322
1345 429
1345 857
1345 964
1457 108
1457 215
1457 322
1457 429
1457 536
1457 643
1457 750
1457 857
1126 87
406 130
->EDGES
1 2 107.00
1 3 112.00
1 4 154.90
2 3 154.90
2 4 112.00
3 4 107.00
3 5 112.00
3 6 154.90
4 5 154.90
4 6 112.00
5 6 107.00
5 7 112.00
5 8 154.90
5 65 72.42
6 7 154.90
6 8 112.00
6 65 109.48
7 9 112.00
7 65 48.30
8 10 112.00
8 11 154.90
8 65 95.26
9 15 112.00
10 11 107.00
10 16 112.00
10 17 154.90
11 16 154.90
11 17 112.00
11 18 154.90
12 13 107.00
12 19 154.90
12 20 112.00
12 21 154.90
13 20 154.90
13 21 112.00
13 22 154.90
14 22 154.90
14 23 112.00
15 24 112.00
16 17 107.00
17 18 107.00
17 25 154.90
18 19 107.00
18 25 112.00
18 26 154.90
19 20 107.00
19 25 154.90
19 26 112.00
19 27 154.90
20 21 107.00
20 26 154.90
20 27 112.00
20 28 154.90
21 22 107.00
21 27 154.90
21 28 112.00
22 23 107.00
22 28 154.90
22 29 154.90
23 29 112.00
24 30 112.00
25 26 107.00
26 27 107.00
27 28 107.00
30 31 112.00
31 32 107.00
31 64 118.87
32 33 107.00
32 36 154.90
33 34 107.00
33 36 112.00
33 37 154.90
34 36 154.90
34 37 112.00
34 38 154.90
35 40 154.90
35 41 112.00
36 37 107.00
36 43 112.00
36 44 154.90
37 38 107.00
37 43 154.90
37 44 112.00
37 45 154.90
38 39 107.00
38 44 154.90
38 45 112.00
38 46 154.90
39 40 107.00
39 45 154.90
39 46 112.00
39 47 154.90
40 41 107.00
40 46 154.90
40 47 112.00
40 48 154.90
41 47 154.90
41 48 112.00
41 49 154.90
42 50 112.00
42 64 109.04
43 44 107.00
43 51 154.90
43 52 112.00
43 53 154.90
44 45 107.00
44 52 154.90
44 53 112.00
45 46 107.00
45 53 154.90
46 47 107.00
47 48 107.00
47 54 154.90
48 49 107.00
48 54 112.00
48 55 154.90
49 54 154.90
49 55 112.00
50 56 112.00
51 52 107.00
51 57 112.00
51 58 154.90
52 53 107.00
52 57 154.90
52 58 112.00
52 59 154.90
53 58 154.90
53 59 112.00
53 60 154.90
54 55 107.00
54 62 154.90
54 63 112.00
55 63 154.90
57 58 107.00
58 59 107.00
59 60 107.00
60 61 107.00
61 62 107.00
62 63 107.00
